[2026-03-24T00:33:36.507Z] Pipeline "set_set_set_s004_g004" → 2026_03_24_00_33_36_set_set_set_s004_g004_max.sol
Set parameter WLSAccessID
Set parameter WLSSecret
Set parameter LicenseID to value 2792458
Set parameter LogFile to value "gurobi.log"
Using license file /root/gurobi.lic
Academic license 2792458 - for non-commercial use only - registered to an___@studenti.unipg.it

Gurobi Optimizer version 13.0.1 build v13.0.1rc0 (linux64 - "Ubuntu 24.04.4 LTS")
Copyright (c) 2026, Gurobi Optimization, LLC

Warning: Duplicate section found (read 'binary') - Is a variable name equal to an LP file format keyword?
Warning: Duplicate section found (read 'binary') - Is a variable name equal to an LP file format keyword?
Warning: Duplicate section found (read 'binary') - Is a variable name equal to an LP file format keyword?
Warning: Duplicate section found (read 'binary') - Is a variable name equal to an LP file format keyword?
Warning: Duplicate section found (read 'binary') - Is a variable name equal to an LP file format keyword?
Warning: Duplicate section found (read 'binary') - Is a variable name equal to an LP file format keyword?
Warning: Duplicate section found (read 'binary') - Is a variable name equal to an LP file format keyword?
Warning: Duplicate section found (read 'binary') - Is a variable name equal to an LP file format keyword?
Warning: Duplicate section found (read 'binary') - Is a variable name equal to an LP file format keyword?
Warning: Duplicate section found (read 'binary') - Is a variable name equal to an LP file format keyword?
Warning: Further warnings of this type will be omitted.
Read LP format model from file /root/bgw/data/uploads/2026_03_24_00_33_36_set_set_set_s004_g004_max.lp
Reading time = 0.00 seconds
: 556 rows, 108 columns, 1425 nonzeros

Using Gurobi shared library /opt/gurobi1301/linux64/lib/libgurobi.so.13.0.1

CPU model: AMD EPYC-Genoa Processor, instruction set [SSE2|AVX|AVX2|AVX512]
Thread count: 16 physical cores, 16 logical processors, using up to 16 threads

Academic license 2792458 - for non-commercial use only - registered to an___@studenti.unipg.it
Optimize a model with 556 rows, 108 columns and 1425 nonzeros (Max)
Model fingerprint: 0x55fc8863
Model has 27 linear objective coefficients
Variable types: 36 continuous, 72 integer (72 binary)
Coefficient statistics:
  Matrix range     [1e+00, 1e+01]
  Objective range  [1e+00, 1e+00]
  Bounds range     [1e+00, 1e+00]
  RHS range        [1e+00, 1e+01]

Found heuristic solution: objective 27.0000000
Presolve removed 337 rows and 42 columns
Presolve time: 0.00s
Presolved: 219 rows, 66 columns, 711 nonzeros
Variable types: 0 continuous, 66 integer (57 binary)
Found heuristic solution: objective 56.0000000

Root relaxation: objective 1.360000e+02, 64 iterations, 0.00 seconds (0.00 work units)

    Nodes    |    Current Node    |     Objective Bounds      |     Work
 Expl Unexpl |  Obj  Depth IntInf | Incumbent    BestBd   Gap | It/Node Time

     0     0  136.00000    0   41   56.00000  136.00000   143%     -    0s
H    0     0                      59.0000000  136.00000   131%     -    0s
H    0     0                      61.0000000  136.00000   123%     -    0s
H    0     0                      62.0000000  136.00000   119%     -    0s
     0     0  136.00000    0   43   62.00000  136.00000   119%     -    0s
     0     0  136.00000    0   42   62.00000  136.00000   119%     -    0s
     0     0  136.00000    0   42   62.00000  136.00000   119%     -    0s
H    0     0                      63.0000000  136.00000   116%     -    0s
     0     0  136.00000    0   42   63.00000  136.00000   116%     -    0s
     0     0  136.00000    0   42   63.00000  136.00000   116%     -    0s
H    0     0                      64.0000000  136.00000   112%     -    0s
     0     0  136.00000    0   42   64.00000  136.00000   112%     -    0s
     0     0  136.00000    0   42   64.00000  136.00000   112%     -    0s
     0     0  136.00000    0   42   64.00000  136.00000   112%     -    0s
     0     0  136.00000    0   42   64.00000  136.00000   112%     -    0s
     0     0  136.00000    0   42   64.00000  136.00000   112%     -    0s
H    0     0                      66.0000000  136.00000   106%     -    0s
H    0     0                      67.0000000  136.00000   103%     -    0s
H    0     2                      69.0000000  136.00000  97.1%     -    0s
     0     2  136.00000    0   33   69.00000  136.00000  97.1%     -    0s
H  261   220                      71.0000000  135.00000  90.1%  15.6    0s

Cutting planes:
  Cover: 1
  Inf proof: 5

Explored 11807 nodes (115433 simplex iterations) in 0.66 seconds (0.57 work units)
Thread count was 16 (of 16 available processors)

Solution count 10: 71 69 67 ... 56

Optimal solution found (tolerance 1.00e-04)
Best objective 7.100000000000e+01, best bound 7.100000000000e+01, gap 0.0000%

Wrote result file '/root/bgw/data/results/2026_03_24_00_33_36_set_set_set_s004_g004_max.sol'

